\ SCIP STATISTICS
\   Problem name     : blend2
\   Variables        : 353 (239 binary, 25 integer, 0 implicit integer, 89 continuous)
\   Constraints      : 274
\   Obj. scale       : 1
\   Obj. offset      : 0
Minimize
 Obj: +5.472803 VV627 +0.808229 VV626 +0.515061 VV625 +0.862908 VV624 +2.345465 VV623 +4.572721 VV622
      +3.000857 VV621 +4.824437 VV620 +9.264861 VV619 +0.993126 VV618 +0.502796 VV617 +0.750942 VV616
      +1.438391 VV615 +3.000857 VV614 +2.875916 VV613 +0.525196 VV612 +0.63289 VV611 +4.089271 VV610 +6.324203 VV609
      +14.501741 VV608 +23.501588 VV607 +9.264861 VV606 +0.502796 VV605 +0.862908 VV604 +1.502445 VV603
      +1.502445 VV602 +0.537756 VV541 +0.698853 VV542 +0.50276 VV543 +0.895022 VV544 +1.743451 VV545 +0.942649 VV546
      +1.830058 VV547 +0.895022 VV548 +1.161897 VV549 +2.63988 VV550 +0.687402 VV551 +0.502796 VV552 +3.85769 VV553
      +0.502796 VV554 +1.502445 VV555 +2.527007 VV556 +1.502445 VV557 +0.613929 VV558 +2.109085 VV559
      +2.417521 VV560 +1.042655 VV561 +0.587534 VV562 +0.808229 VV563 +0.994499 VV564 +0.50276 VV565 +0.732566 VV566
      +0.587534 VV567 +3.308961 VV568 +4.697755 VV569 +3.85769 VV570 +0.994499 VV571 +0.750942 VV572 +4.697755 VV573
      +3.000857 VV574 +1.438391 VV575 +0.50276 VV576 +0.587534 VV577 +0.525196 VV578 +0.639556 VV579 +4.697755 VV580
      +2.433549 VV581 +0.948479 VV582 +1.199801 VV583 +0.609059 VV584 +0.50276 VV585 +0.718052 VV586 +0.507716 VV587
      +3.415212 VV588 +1.569899 VV589 +1.161897 VV590 +3.101773 VV591 +0.994499 VV592 +0.515061 VV593
      +0.613929 VV594 +13.458794 VV595 +5.618654 VV596 +3.204477 VV597 +1.314989 VV598 +0.823386 VV599
      +0.63289 VV600 +0.769018 VV601 +24.014225 VV628
Subject to
 VV2: -1000 VV276 -609 VV364 +1 VV452 = +0
 VV3: -1000 VV277 -908 VV365 +1 VV453 = +0
 VV4: -1000 VV278 -574 VV366 +1 VV454 = +0
 VV5: -1000 VV279 -100 VV367 +1 VV455 = +0
 VV6: -1000 VV280 -71 VV368 +1 VV456 = +0
 VV7: -1000 VV281 -424 VV369 +1 VV457 = +0
 VV8: -1000 VV282 -400 VV370 +1 VV458 = +0
 VV9: -1000 VV283 -339 VV371 +1 VV459 = +0
 VV10: -1000 VV284 -383 VV372 +1 VV460 = +0
 VV11: -1000 VV285 -906 VV373 +1 VV461 = +0
 VV12: -1000 VV286 +1 VV462 = +0
 VV13: -1000 VV287 -86 VV375 +1 VV463 = +0
 VV14: -1000 VV288 +1 VV464 = +0
 VV15: -1000 VV289 -57 VV377 +1 VV465 = +0
 VV16: -1000 VV290 -64 VV378 +1 VV466 = +0
 VV17: -1000 VV291 -958 VV379 +1 VV467 = +0
 VV18: -1000 VV292 -467 VV380 +1 VV468 = +0
 VV19: -1000 VV293 -228 VV381 +1 VV469 = +0
 VV20: -1000 VV294 -270 VV382 +1 VV470 = +0
 VV21: -1000 VV295 -129 VV383 +1 VV471 = +0
 VV22: -1000 VV296 -941 VV384 +1 VV472 = +0
 VV23: -1000 VV297 -934 VV385 +1 VV473 = +0
 VV24: -1000 VV298 -354 VV386 +1 VV474 = +0
 VV25: -1000 VV299 -678 VV387 +1 VV475 = +0
 VV26: -1000 VV300 -128 VV388 +1 VV476 = +0
 VV27: -1000 VV301 -646 VV389 +1 VV477 = +0
 VV28: -1000 VV302 -500 VV390 +1 VV478 = +0
 VV29: -1000 VV303 -200 VV391 +1 VV479 = +0
 VV30: -1000 VV304 -600 VV392 +1 VV480 = +0
 VV31: -1000 VV305 +1 VV481 = +0
 VV32: -1000 VV306 -66 VV394 +1 VV482 = +0
 VV33: -1000 VV307 -903 VV395 +1 VV483 = +0
 VV34: -1000 VV308 +1 VV484 = +0
 VV35: -1000 VV309 -60 VV397 +1 VV485 = +0
 VV36: -1000 VV310 -843 VV398 +1 VV486 = +0
 VV37: -1000 VV311 +1 VV487 = +0
 VV38: -1000 VV312 -172 VV400 +1 VV488 = +0
 VV39: -1000 VV313 -468 VV401 +1 VV489 = +0
 VV40: -1000 VV314 -715 VV402 +1 VV490 = +0
 VV41: -1000 VV315 -633 VV403 +1 VV491 = +0
 VV42: -1000 VV316 -156 VV404 +1 VV492 = +0
 VV43: -1000 VV317 -279 VV405 +1 VV493 = +0
 VV44: -1000 VV318 -625 VV406 +1 VV494 = +0
 VV45: -1000 VV319 -350 VV407 +1 VV495 = +0
 VV46: -1000 VV320 -828 VV408 +1 VV496 = +0
 VV47: -1000 VV321 -41 VV409 +1 VV497 = +0
 VV48: -1000 VV322 -443 VV410 +1 VV498 = +0
 VV49: -1000 VV323 -568 VV411 +1 VV499 = +0
 VV50: -1000 VV324 -952 VV412 +1 VV500 = +0
 VV51: -1000 VV325 +1 VV501 = +0
 VV52: -1000 VV326 -437 VV414 +1 VV502 = +0
 VV53: -1000 VV327 -197 VV415 +1 VV503 = +0
 VV54: -1000 VV328 -420 VV416 +1 VV504 = +0
 VV55: -1000 VV329 -995 VV417 +1 VV505 = +0
 VV56: -1000 VV330 -498 VV418 +1 VV506 = +0
 VV57: -1000 VV331 -580 VV419 +1 VV507 = +0
 VV58: -1000 VV332 -883 VV420 +1 VV508 = +0
 VV59: -1000 VV333 -328 VV421 +1 VV509 = +0
 VV60: -1000 VV334 -52 VV422 +1 VV510 = +0
 VV61: -1000 VV335 -332 VV423 +1 VV511 = +0
 VV62: -1000 VV336 -998 VV424 +1 VV512 = +0
 VV63: -1000 VV337 -895 VV425 +1 VV513 = +0
 VV64: -1000 VV338 -870 VV426 +1 VV514 = +0
 VV65: -1000 VV339 -605 VV427 +1 VV515 = +0
 VV66: -1000 VV340 -430 VV428 +1 VV516 = +0
 VV67: -1000 VV341 -863 VV429 +1 VV517 = +0
 VV68: -1000 VV342 -299 VV430 +1 VV518 = +0
 VV69: -1000 VV343 -522 VV431 +1 VV519 = +0
 VV70: -1000 VV344 +1 VV520 = +0
 VV71: -1000 VV345 -455 VV433 +1 VV521 = +0
 VV72: -1000 VV346 +1 VV522 = +0
 VV73: -1000 VV347 -830 VV435 +1 VV523 = +0
 VV74: -1000 VV348 +1 VV524 = +0
 VV75: -1000 VV349 -768 VV437 +1 VV525 = +0
 VV76: -1000 VV350 -787 VV438 +1 VV526 = +0
 VV77: -1000 VV351 -890 VV439 +1 VV527 = +0
 VV78: -1000 VV352 -844 VV440 +1 VV528 = +0
 VV79: -1000 VV353 -914 VV441 +1 VV529 = +0
 VV80: -1000 VV354 -922 VV442 +1 VV530 = +0
 VV81: -1000 VV355 -775 VV443 +1 VV531 = +0
 VV82: -1000 VV356 -616 VV444 +1 VV532 = +0
 VV83: -1000 VV357 -850 VV445 +1 VV533 = +0
 VV84: -1000 VV358 -832 VV446 +1 VV534 = +0
 VV85: -1000 VV359 -770 VV447 +1 VV535 = +0
 VV86: -1000 VV360 -450 VV448 +1 VV536 = +0
 VV87: -1000 VV361 -9 VV449 +1 VV537 = +0
 VV88: -1000 VV362 -60 VV450 +1 VV538 = +0
 VV89: -1000 VV363 -685 VV451 +1 VV539 = +0
 VV90: +1 VV452 -1609 VV541 <= +0
 VV91: +1 VV453 -2908 VV542 <= +0
 VV92: +1 VV454 -1574 VV543 <= +0
 VV93: +1 VV455 -100 VV544 <= +0
 VV94: +1 VV456 -1071 VV545 <= +0
 VV95: +1 VV457 -1424 VV546 <= +0
 VV96: +1 VV458 -2400 VV547 <= +0
 VV97: +1 VV459 -1339 VV548 <= +0
 VV98: +1 VV460 -1383 VV549 <= +0
 VV99: +1 VV461 -906 VV550 <= +0
 VV100: +1 VV462 -1000 VV551 <= +0
 VV101: +1 VV463 -1086 VV552 <= +0
 VV102: +1 VV464 -3000 VV553 <= +0
 VV103: +1 VV465 -2057 VV554 <= +0
 VV104: +1 VV466 -2064 VV555 <= +0
 VV105: +1 VV467 -1958 VV556 <= +0
 VV106: +1 VV468 -1467 VV557 <= +0
 VV107: +1 VV469 -2228 VV558 <= +0
 VV108: +1 VV470 -2270 VV559 <= +0
 VV109: +1 VV471 -2129 VV560 <= +0
 VV110: +1 VV472 -1941 VV561 <= +0
 VV111: +1 VV473 -1934 VV562 <= +0
 VV112: +1 VV474 -354 VV563 <= +0
 VV113: +1 VV475 -1678 VV564 <= +0
 VV114: +1 VV476 -3128 VV565 <= +0
 VV115: +1 VV477 -1646 VV566 <= +0
 VV116: +1 VV478 -500 VV567 <= +0
 VV117: +1 VV479 -1200 VV568 <= +0
 VV118: +1 VV480 -600 VV569 <= +0
 VV119: +1 VV481 -1000 VV570 <= +0
 VV120: +1 VV482 -1066 VV571 <= +0
 VV121: +1 VV483 -1903 VV572 <= +0
 VV122: +1 VV484 -3000 VV573 <= +0
 VV123: +1 VV485 -2060 VV574 <= +0
 VV124: +1 VV486 -843 VV575 <= +0
 VV125: +1 VV487 -1000 VV576 <= +0
 VV126: +1 VV488 -1172 VV577 <= +0
 VV127: +1 VV489 -1468 VV578 <= +0
 VV128: +1 VV490 -1715 VV579 <= +0
 VV129: +1 VV491 -2633 VV580 <= +0
 VV130: +1 VV492 -1156 VV581 <= +0
 VV131: +1 VV493 -1279 VV582 <= +0
 VV132: +1 VV494 -1625 VV583 <= +0
 VV133: +1 VV495 -1350 VV584 <= +0
 VV134: +1 VV496 -1828 VV585 <= +0
 VV135: +1 VV497 -1041 VV586 <= +0
 VV136: +1 VV498 -1443 VV587 <= +0
 VV137: +1 VV499 -3568 VV588 <= +0
 VV138: +1 VV500 -1952 VV589 <= +0
 VV139: +1 VV501 -1000 VV590 <= +0
 VV140: +1 VV502 -5437 VV591 <= +0
 VV141: +1 VV503 -1197 VV592 <= +0
 VV142: +1 VV504 -1420 VV593 <= +0
 VV143: +1 VV505 -995 VV594 <= +0
 VV144: +1 VV506 -1498 VV595 <= +0
 VV145: +1 VV507 -4580 VV596 <= +0
 VV146: +1 VV508 -3883 VV597 <= +0
 VV147: +1 VV509 -1328 VV598 <= +0
 VV148: +1 VV510 -1052 VV599 <= +0
 VV149: +1 VV511 -1332 VV600 <= +0
 VV150: +1 VV512 -1998 VV601 <= +0
 VV151: +1 VV513 -895 VV602 <= +0
 VV152: +1 VV514 -1870 VV603 <= +0
 VV153: +1 VV515 -1605 VV604 <= +0
 VV154: +1 VV516 -1430 VV605 <= +0
 VV155: +1 VV517 -1863 VV606 <= +0
 VV156: +1 VV518 -2299 VV607 <= +0
 VV157: +1 VV519 -1522 VV608 <= +0
 VV158: +1 VV520 -3000 VV609 <= +0
 VV159: +1 VV521 -4455 VV610 <= +0
 VV160: +1 VV522 -2000 VV611 <= +0
 VV161: +1 VV523 -1830 VV612 <= +0
 VV162: +1 VV524 -1000 VV613 <= +0
 VV163: +1 VV525 -3768 VV614 <= +0
 VV164: +1 VV526 -1787 VV615 <= +0
 VV165: +1 VV527 -1890 VV616 <= +0
 VV166: +1 VV528 -1844 VV617 <= +0
 VV167: +1 VV529 -1914 VV618 <= +0
 VV168: +1 VV530 -1922 VV619 <= +0
 VV169: +1 VV531 -4775 VV620 <= +0
 VV170: +1 VV532 -1616 VV621 <= +0
 VV171: +1 VV533 -1850 VV622 <= +0
 VV172: +1 VV534 -1832 VV623 <= +0
 VV173: +1 VV535 -1770 VV624 <= +0
 VV174: +1 VV536 -1450 VV625 <= +0
 VV175: +1 VV537 -2009 VV626 <= +0
 VV176: +1 VV538 -2060 VV627 <= +0
 VV177: +1 VV539 -2685 VV628 <= +0
 VV178: -1 VV452 -1 VV453 -1 VV454 -1 VV455 -1 VV456 -1 VV457 -1 VV458 -1 VV459 -1 VV460 -1 VV461 -1 VV462
  -1 VV463 -1 VV464 -1 VV465 -1 VV466 -1 VV467 -1 VV468 -1 VV469 -1 VV470 -1 VV471 -1 VV472 -1 VV473 -1 VV474
  -1 VV475 -1 VV476 -1 VV477 -1 VV478 -1 VV479 -1 VV480 -1 VV481 -1 VV482 -1 VV483 -1 VV484 -1 VV485 -1 VV486
  -1 VV487 -1 VV488 -1 VV489 -1 VV490 -1 VV491 -1 VV492 -1 VV493 -1 VV494 -1 VV495 -1 VV496 -1 VV497 -1 VV498
  -1 VV499 -1 VV500 -1 VV501 -1 VV502 -1 VV503 -1 VV504 -1 VV505 -1 VV506 -1 VV507 -1 VV508 -1 VV509 -1 VV510
  -1 VV511 -1 VV512 -1 VV513 -1 VV514 -1 VV515 -1 VV516 -1 VV517 -1 VV518 -1 VV519 -1 VV520 -1 VV521 -1 VV522
  -1 VV523 -1 VV524 -1 VV525 -1 VV526 -1 VV527 -1 VV528 -1 VV529 -1 VV530 -1 VV531 -1 VV532 -1 VV533 -1 VV534
  -1 VV535 -1 VV536 -1 VV537 -1 VV538 -1 VV539 +1 VV540 = +0
 VV179: +1.763519 VV452 +1.658312 VV453 +1.830301 VV454 +1.749286 VV455 +1.649242 VV456 +1.734935 VV457
  +1.581139 VV458 +1.676305 VV459 +1.74069 VV460 +1.615549 VV461 +1.959592 VV462 +1.819341 VV463 +2.118962 VV464
  +1.794436 VV465 +1.581139 VV466 +1.615549 VV467 +1.67332 VV468 +1.734935 VV469 +1.612452 VV470 +1.691153 VV471
  +2.55147 VV472 +1.852026 VV473 +2.204541 VV474 +1.926136 VV475 +1.777639 VV476 +2.063977 VV477 +1.67332 VV478
  +2.19089 VV479 +2.022375 VV480 +2.193171 VV481 +2.453569 VV482 +2.569047 VV483 +2.03224 VV484 +2.140093 VV485
  +1.923538 VV486 +2.218107 VV487 +1.918333 VV488 +1.752142 VV489 +1.881489 VV490 +2.078461 VV491 +2.184033 VV492
  +2.362202 VV493 +2.278157 VV494 +2.366432 VV495 +2.289105 VV496 +2 VV497 +2.039608 VV498 +2.142429 VV499
  +2.319483 VV500 +2.304344 VV501 +2.22036 VV502 +2.48998 VV503 +2.565151 VV504 +2.673948 VV505 +1.545962 VV506
  +2 VV507 +2.211334 VV508 +2.453569 VV509 +2.485961 VV510 +2.611513 VV511 +2.605763 VV512 +2.447448 VV513
  +2.416609 VV514 +2.039608 VV515 +2.280351 VV516 +1.841195 VV517 +1.5 VV518 +1.664332 VV519 +2.063977 VV520
  +2.19089 VV521 +1.941649 VV522 +2 VV523 +2.238303 VV524 +2.227106 VV525 +2.416609 VV526 +2.624881 VV527
  +2.673948 VV528 +2.572936 VV529 +1.609348 VV530 +2.090454 VV531 +2.244994 VV532 +2.135416 VV533 +2.381176 VV534
  +2.6 VV535 +2.437212 VV536 +2.059126 VV537 +1.931321 VV538 +1.414214 VV539 -2.156386 VV540 >= +0
 VV180: +1.763519 VV452 +1.658312 VV453 +1.830301 VV454 +1.749286 VV455 +1.649242 VV456 +1.734935 VV457
  +1.581139 VV458 +1.676305 VV459 +1.74069 VV460 +1.615549 VV461 +1.959592 VV462 +1.819341 VV463 +2.118962 VV464
  +1.794436 VV465 +1.581139 VV466 +1.615549 VV467 +1.67332 VV468 +1.734935 VV469 +1.612452 VV470 +1.691153 VV471
  +2.55147 VV472 +1.852026 VV473 +2.204541 VV474 +1.926136 VV475 +1.777639 VV476 +2.063977 VV477 +1.67332 VV478
  +2.19089 VV479 +2.022375 VV480 +2.193171 VV481 +2.453569 VV482 +2.569047 VV483 +2.03224 VV484 +2.140093 VV485
  +1.923538 VV486 +2.218107 VV487 +1.918333 VV488 +1.752142 VV489 +1.881489 VV490 +2.078461 VV491 +2.184033 VV492
  +2.362202 VV493 +2.278157 VV494 +2.366432 VV495 +2.289105 VV496 +2 VV497 +2.039608 VV498 +2.142429 VV499
  +2.319483 VV500 +2.304344 VV501 +2.22036 VV502 +2.48998 VV503 +2.565151 VV504 +2.673948 VV505 +1.545962 VV506
  +2 VV507 +2.211334 VV508 +2.453569 VV509 +2.485961 VV510 +2.611513 VV511 +2.605763 VV512 +2.447448 VV513
  +2.416609 VV514 +2.039608 VV515 +2.280351 VV516 +1.841195 VV517 +1.5 VV518 +1.664332 VV519 +2.063977 VV520
  +2.19089 VV521 +1.941649 VV522 +2 VV523 +2.238303 VV524 +2.227106 VV525 +2.416609 VV526 +2.624881 VV527
  +2.673948 VV528 +2.572936 VV529 +1.609348 VV530 +2.090454 VV531 +2.244994 VV532 +2.135416 VV533 +2.381176 VV534
  +2.6 VV535 +2.437212 VV536 +2.059126 VV537 +1.931321 VV538 +1.414214 VV539 -2.161018 VV540 <= +0
 VV181: +14.03567 VV452 +13.78405 VV453 +14.177448 VV454 +13.601471 VV455 +13.114877 VV456 +13.564661 VV457
  +13.076698 VV458 +13.601471 VV459 +13.416408 VV460 +12.767146 VV461 +14.662879 VV462 +14.282857 VV463
  +16.062377 VV464 +14.282857 VV465 +13.228757 VV466 +12.806248 VV467 +13.228757 VV468 +13.892444 VV469
  +12.961482 VV470 +12.845233 VV471 +14.96663 VV472 +14.525839 VV473 +13.674795 VV474 +14.933185 VV475
  +14.177448 VV476 +13.747728 VV477 +14.525839 VV478 +15.905975 VV479 +16.278821 VV480 +16.062377 VV481
  +14.933185 VV482 +14.73092 VV483 +16.278821 VV484 +15.811388 VV485 +15.198684 VV486 +14.177448 VV487
  +14.525839 VV488 +14.071248 VV489 +13.856407 VV490 +16.278821 VV491 +15.620499 VV492 +14.899664 VV493
  +15.066519 VV494 +14.56022 VV495 +14.177448 VV496 +14.696938 VV497 +14.317821 VV498 +15.937377 VV499
  +15.264338 VV500 +13.416408 VV501 +15.842981 VV502 +14.933185 VV503 +14.352701 VV504 +13.892444 VV505
  +10.630146 VV506 +16.492422 VV507 +15.874508 VV508 +15.132746 VV509 +14.798649 VV510 +14.59452 VV511
  +13.71131 VV512 +13.228757 VV513 +13.228757 VV514 +14.832398 VV515 +14.282857 VV516 +11.269429 VV517
  +9.433981 VV518 +10.488088 VV519 +16.643316 VV520 +16.124515 VV521 +14.59452 VV522 +14.071248 VV523
  +12.688578 VV524 +15.811388 VV525 +15.198684 VV526 +14.73092 VV527 +14.282857 VV528 +13.52775 VV529
  +11.269429 VV530 +16.309505 VV531 +15.811388 VV532 +16.248077 VV533 +15.588458 VV534 +14.832398 VV535
  +14.352701 VV536 +13.674795 VV537 +12 VV538 +9.380832 VV539 -14.142136 VV540 >= +0
 VV182: +14.03567 VV452 +13.78405 VV453 +14.177448 VV454 +13.601471 VV455 +13.114877 VV456 +13.564661 VV457
  +13.076698 VV458 +13.601471 VV459 +13.416408 VV460 +12.767146 VV461 +14.662879 VV462 +14.282857 VV463
  +16.062377 VV464 +14.282857 VV465 +13.228757 VV466 +12.806248 VV467 +13.228757 VV468 +13.892444 VV469
  +12.961482 VV470 +12.845233 VV471 +14.96663 VV472 +14.525839 VV473 +13.674795 VV474 +14.933185 VV475
  +14.177448 VV476 +13.747728 VV477 +14.525839 VV478 +15.905975 VV479 +16.278821 VV480 +16.062377 VV481
  +14.933185 VV482 +14.73092 VV483 +16.278821 VV484 +15.811388 VV485 +15.198684 VV486 +14.177448 VV487
  +14.525839 VV488 +14.071248 VV489 +13.856407 VV490 +16.278821 VV491 +15.620499 VV492 +14.899664 VV493
  +15.066519 VV494 +14.56022 VV495 +14.177448 VV496 +14.696938 VV497 +14.317821 VV498 +15.937377 VV499
  +15.264338 VV500 +13.416408 VV501 +15.842981 VV502 +14.933185 VV503 +14.352701 VV504 +13.892444 VV505
  +10.630146 VV506 +16.492422 VV507 +15.874508 VV508 +15.132746 VV509 +14.798649 VV510 +14.59452 VV511
  +13.71131 VV512 +13.228757 VV513 +13.228757 VV514 +14.832398 VV515 +14.282857 VV516 +11.269429 VV517
  +9.433981 VV518 +10.488088 VV519 +16.643316 VV520 +16.124515 VV521 +14.59452 VV522 +14.071248 VV523
  +12.688578 VV524 +15.811388 VV525 +15.198684 VV526 +14.73092 VV527 +14.282857 VV528 +13.52775 VV529
  +11.269429 VV530 +16.309505 VV531 +15.811388 VV532 +16.248077 VV533 +15.588458 VV534 +14.832398 VV535
  +14.352701 VV536 +13.674795 VV537 +12 VV538 +9.380832 VV539 -14.317821 VV540 <= +0
 VV183: +10.300001 VV452 +10.58 VV453 +10.430001 VV454 +10.210001 VV455 +10.28 VV456 +9.520001 VV457 +10.78 VV458
  +9.7 VV459 +10.65 VV460 +10.220001 VV461 +10.420001 VV462 +10.420001 VV463 +10.020001 VV464 +10.11 VV465
  +10.19 VV466 +10.270001 VV467 +10.800001 VV468 +10.840001 VV469 +10.130001 VV470 +9.83 VV471 +11.270001 VV472
  +10.65 VV473 +10.54 VV474 +11.99 VV475 +11.390001 VV476 +11.800001 VV477 +10.36 VV478 +11.62 VV479 +11.560001 VV480
  +10.53 VV481 +11.9 VV482 +11.04 VV483 +10.62 VV484 +11.62 VV485 +10.760001 VV486 +11.11 VV487 +10.680001 VV488
  +10.800001 VV489 +10.090001 VV490 +9.74 VV491 +10.060001 VV492 +10.390001 VV493 +10.720001 VV494 +10.98 VV495
  +11.28 VV496 +10.49 VV497 +10.99 VV498 +10.550001 VV499 +10.83 VV500 +10.810001 VV501 +11.020001 VV502
  +10.800001 VV503 +10.82 VV504 +11.12 VV505 +10.48 VV506 +10.65 VV507 +10.69 VV508 +10.49 VV509 +10.560001 VV510
  +10.9 VV511 +10.94 VV512 +10.65 VV513 +10.83 VV514 +11.08 VV515 +11.44 VV516 +9.800001 VV517 +10.24 VV518
  +9.99 VV519 +11.57 VV520 +11.24 VV521 +10.970001 VV522 +10.890001 VV523 +10.130001 VV524 +11.090001 VV525
  +11.12 VV526 +11.590001 VV527 +11.41 VV528 +11.550001 VV529 +10.08 VV530 +11 VV531 +10.010001 VV532
  +10.87 VV533 +10.65 VV534 +11.03 VV535 +10.680001 VV536 +10.53 VV537 +10.720001 VV538 +10.44 VV539 -11.2 VV540
  <= +0
 VV184: +5.75 VV452 +7.25 VV453 +5 VV454 +6.25 VV455 +6.75 VV456 +5.75 VV457 +5.75 VV458 +6.25 VV459 +4.75 VV460
  +5.25 VV461 +5 VV462 +5.25 VV463 +2.25 VV464 +5.5 VV465 +7 VV466 +7.5 VV467 +6.5 VV468 +5.5 VV469 +6.25 VV470
  +6.5 VV471 +3.25 VV472 +5.25 VV473 +3 VV474 +3.5 VV475 +4.25 VV476 +4.25 VV477 +4.25 VV478 +1.75 VV479
  +1.75 VV480 +2.25 VV481 +3 VV482 +3.5 VV483 +1.75 VV484 +1.75 VV485 +2.5 VV486 +2.75 VV487 +4.75 VV488
  +6 VV489 +6 VV490 +2.5 VV491 +3 VV492 +3.75 VV493 +2.25 VV494 +2.75 VV495 +3.25 VV496 +3.5 VV497 +4.25 VV498
  +2.5 VV499 +3 VV500 +3.75 VV501 +2.75 VV502 +3.25 VV503 +4 VV504 +4.5 VV505 +6.75 VV506 +1.75 VV507
  +1.75 VV508 +2.25 VV509 +2.75 VV510 +3.25 VV511 +3.75 VV512 +4.75 VV513 +2.75 VV514 +1.75 VV515 +2.25 VV516
  +4.5 VV517 +5.25 VV518 +4.75 VV519 +1.75 VV520 +1.75 VV521 +3.75 VV522 +4.25 VV523 +5 VV524 +2.25 VV525
  +2.75 VV526 +3.25 VV527 +4.25 VV528 +4.25 VV529 +4.75 VV530 +1.25 VV531 +1.5 VV532 +1.5 VV533 +1.75 VV534
  +2.25 VV535 +2.75 VV536 +3 VV537 +4.75 VV538 +6.25 VV539 -3.5 VV540 <= +0
 VV185: +75 VV452 +95 VV453 +59 VV454 +79 VV455 +104 VV456 +94 VV457 +77 VV458 +86 VV459 +89 VV460 +200 VV461
  +59 VV462 +81 VV463 +4 VV464 +95 VV465 +129 VV466 +180 VV467 +92 VV468 +72 VV469 +145 VV470 +200 VV471
  +19 VV472 +38 VV473 +42 VV474 +29 VV475 +41 VV476 +38 VV477 +45 VV478 +4 VV479 +5 VV480 +5 VV481 +17 VV482
  +25 VV483 +5 VV484 +6 VV485 +15 VV486 +15 VV487 +54 VV488 +79 VV489 +72 VV490 +6 VV491 +10 VV492 +15 VV493
  +13 VV494 +19 VV495 +34 VV496 +15 VV497 +38 VV498 +6 VV499 +10 VV500 +41 VV501 +5 VV502 +13 VV503 +25 VV504
  +43 VV505 +25 VV506 +4 VV507 +4 VV508 +6 VV509 +9 VV510 +13 VV511 +30 VV512 +37 VV513 +44 VV514 +7 VV515
  +12 VV516 +55 VV517 +17 VV518 +39 VV519 +4 VV520 +5 VV521 +23 VV522 +47 VV523 +78 VV524 +6 VV525 +10 VV526
  +19 VV527 +33 VV528 +54 VV529 +26 VV530 +4 VV531 +5 VV532 +7 VV533 +6 VV534 +8 VV535 +13 VV536 +31 VV537
  +21 VV538 +13 VV539 -30 VV540 <= +0
 VV186: +2747 VV452 +4929 VV453 +3018 VV454 +2975 VV455 +7243 VV456 +5017 VV457 +5046 VV458 +3062 VV459
  +3787 VV460 +7075 VV461 +2237 VV462 +2796 VV463 +150 VV464 +3493 VV465 +5405 VV466 +5500 VV467 +4566 VV468
  +2500 VV469 +4874 VV470 +5303 VV471 +150 VV472 +2197 VV473 +150 VV474 +1458 VV475 +2810 VV476 +2630 VV477
  +150 VV478 +150 VV479 +150 VV480 +150 VV481 +150 VV482 +150 VV483 +150 VV484 +150 VV485 +150 VV486 +150 VV487
  +2177 VV488 +3219 VV489 +3947 VV490 +150 VV491 +150 VV492 +150 VV493 +150 VV494 +150 VV495 +150 VV496
  +150 VV497 +150 VV498 +150 VV499 +150 VV500 +150 VV501 +150 VV502 +150 VV503 +150 VV504 +150 VV505 +150 VV506
  +150 VV507 +150 VV508 +150 VV509 +150 VV510 +150 VV511 +150 VV512 +150 VV513 +150 VV514 +150 VV515 +150 VV516
  +150 VV517 +150 VV518 +150 VV519 +150 VV520 +150 VV521 +150 VV522 +150 VV523 +150 VV524 +150 VV525 +150 VV526
  +150 VV527 +150 VV528 +150 VV529 +150 VV530 +150 VV531 +150 VV532 +150 VV533 +150 VV534 +150 VV535 +150 VV536
  +150 VV537 +150 VV538 +150 VV539 -410 VV540 >= +0
 VV187: +2747 VV452 +4929 VV453 +3018 VV454 +2975 VV455 +7243 VV456 +5017 VV457 +5046 VV458 +3062 VV459
  +3787 VV460 +7075 VV461 +2237 VV462 +2796 VV463 +150 VV464 +3493 VV465 +5405 VV466 +5500 VV467 +4566 VV468
  +2500 VV469 +4874 VV470 +5303 VV471 +150 VV472 +2197 VV473 +150 VV474 +1458 VV475 +2810 VV476 +2630 VV477
  +150 VV478 +150 VV479 +150 VV480 +150 VV481 +150 VV482 +150 VV483 +150 VV484 +150 VV485 +150 VV486 +150 VV487
  +2177 VV488 +3219 VV489 +3947 VV490 +150 VV491 +150 VV492 +150 VV493 +150 VV494 +150 VV495 +150 VV496
  +150 VV497 +150 VV498 +150 VV499 +150 VV500 +150 VV501 +150 VV502 +150 VV503 +150 VV504 +150 VV505 +150 VV506
  +150 VV507 +150 VV508 +150 VV509 +150 VV510 +150 VV511 +150 VV512 +150 VV513 +150 VV514 +150 VV515 +150 VV516
  +150 VV517 +150 VV518 +150 VV519 +150 VV520 +150 VV521 +150 VV522 +150 VV523 +150 VV524 +150 VV525 +150 VV526
  +150 VV527 +150 VV528 +150 VV529 +150 VV530 +150 VV531 +150 VV532 +150 VV533 +150 VV534 +150 VV535 +150 VV536
  +150 VV537 +150 VV538 +150 VV539 -450 VV540 <= +0
 VV188: +1 VV364 <= +609
 VV189: +1 VV365 <= +908
 VV190: +1 VV366 <= +574
 VV191: +1 VV367 <= +100
 VV192: +1 VV368 <= +71
 VV193: +1 VV369 <= +424
 VV194: +1 VV370 <= +400
 VV195: +1 VV371 <= +339
 VV196: +1 VV372 <= +383
 VV197: +1 VV373 <= +906
 VV198: +1 VV374 <= +0
 VV199: +1 VV375 <= +86
 VV200: +1 VV376 <= +0
 VV201: +1 VV377 <= +57
 VV202: +1 VV378 <= +64
 VV203: +1 VV379 <= +958
 VV204: +1 VV380 <= +467
 VV205: +1 VV381 <= +228
 VV206: +1 VV382 <= +270
 VV207: +1 VV383 <= +129
 VV208: +1 VV384 <= +941
 VV209: +1 VV385 <= +934
 VV210: +1 VV386 <= +354
 VV211: +1 VV387 <= +678
 VV212: +1 VV388 <= +128
 VV213: +1 VV389 <= +646
 VV214: +1 VV390 <= +500
 VV215: +1 VV391 <= +200
 VV216: +1 VV392 <= +600
 VV217: +1 VV393 <= +0
 VV218: +1 VV394 <= +66
 VV219: +1 VV395 <= +903
 VV220: +1 VV396 <= +0
 VV221: +1 VV397 <= +60
 VV222: +1 VV398 <= +843
 VV223: +1 VV399 <= +0
 VV224: +1 VV400 <= +172
 VV225: +1 VV401 <= +468
 VV226: +1 VV402 <= +715
 VV227: +1 VV403 <= +633
 VV228: +1 VV404 <= +156
 VV229: +1 VV405 <= +279
 VV230: +1 VV406 <= +625
 VV231: +1 VV407 <= +350
 VV232: +1 VV408 <= +828
 VV233: +1 VV409 <= +41
 VV234: +1 VV410 <= +443
 VV235: +1 VV411 <= +568
 VV236: +1 VV412 <= +952
 VV237: +1 VV413 <= +0
 VV238: +1 VV414 <= +437
 VV239: +1 VV415 <= +197
 VV240: +1 VV416 <= +420
 VV241: +1 VV417 <= +995
 VV242: +1 VV418 <= +498
 VV243: +1 VV419 <= +580
 VV244: +1 VV420 <= +883
 VV245: +1 VV421 <= +328
 VV246: +1 VV422 <= +52
 VV247: +1 VV423 <= +332
 VV248: +1 VV424 <= +998
 VV249: +1 VV425 <= +895
 VV250: +1 VV426 <= +870
 VV251: +1 VV427 <= +605
 VV252: +1 VV428 <= +430
 VV253: +1 VV429 <= +863
 VV254: +1 VV430 <= +299
 VV255: +1 VV431 <= +522
 VV256: +1 VV432 <= +0
 VV257: +1 VV433 <= +455
 VV258: +1 VV434 <= +0
 VV259: +1 VV435 <= +830
 VV260: +1 VV436 <= +0
 VV261: +1 VV437 <= +768
 VV262: +1 VV438 <= +787
 VV263: +1 VV439 <= +890
 VV264: +1 VV440 <= +844
 VV265: +1 VV441 <= +914
 VV266: +1 VV442 <= +922
 VV267: +1 VV443 <= +775
 VV268: +1 VV444 <= +616
 VV269: +1 VV445 <= +850
 VV270: +1 VV446 <= +832
 VV271: +1 VV447 <= +770
 VV272: +1 VV448 <= +450
 VV273: +1 VV449 <= +9
 VV274: +1 VV450 <= +60
 VV275: +1 VV451 <= +685
Bounds
 0 <= VV627 <= 1
 0 <= VV276 <= 1
 0 <= VV626 <= 1
 0 <= VV278 <= 1
 0 <= VV279 <= 0
 0 <= VV280 <= 1
 0 <= VV281 <= 1
 0 <= VV625 <= 1
 0 <= VV283 <= 1
 0 <= VV284 <= 1
 0 <= VV285 <= 0
 0 <= VV286 <= 1
 0 <= VV287 <= 1
 0 <= VV624 <= 1
 0 <= VV623 <= 1
 0 <= VV622 <= 1
 0 <= VV291 <= 1
 0 <= VV292 <= 1
 0 <= VV621 <= 1
 0 <= VV620 <= 1
 0 <= VV619 <= 1
 0 <= VV296 <= 1
 0 <= VV297 <= 1
 0 <= VV298 <= 0
 0 <= VV299 <= 1
 0 <= VV618 <= 1
 0 <= VV301 <= 1
 0 <= VV302 <= 0
 0 <= VV303 <= 1
 0 <= VV304 <= 0
 0 <= VV305 <= 1
 0 <= VV306 <= 1
 0 <= VV307 <= 1
 0 <= VV617 <= 1
 0 <= VV616 <= 1
 0 <= VV310 <= 0
 0 <= VV311 <= 1
 0 <= VV312 <= 1
 0 <= VV313 <= 1
 0 <= VV314 <= 1
 0 <= VV615 <= 1
 0 <= VV316 <= 1
 0 <= VV317 <= 1
 0 <= VV318 <= 1
 0 <= VV319 <= 1
 0 <= VV320 <= 1
 0 <= VV321 <= 1
 0 <= VV322 <= 1
 0 <= VV614 <= 1
 0 <= VV324 <= 1
 0 <= VV325 <= 1
 0 <= VV613 <= 1
 0 <= VV327 <= 1
 0 <= VV328 <= 1
 0 <= VV329 <= 0
 0 <= VV330 <= 1
 0 <= VV612 <= 1
 0 <= VV611 <= 1
 0 <= VV333 <= 1
 0 <= VV334 <= 1
 0 <= VV335 <= 1
 0 <= VV336 <= 1
 0 <= VV337 <= 0
 0 <= VV338 <= 1
 0 <= VV339 <= 1
 0 <= VV340 <= 1
 0 <= VV341 <= 1
 0 <= VV610 <= 1
 0 <= VV343 <= 1
 0 <= VV609 <= 1
 0 <= VV608 <= 1
 0 <= VV607 <= 1
 0 <= VV347 <= 1
 0 <= VV348 <= 1
 0 <= VV606 <= 1
 0 <= VV350 <= 1
 0 <= VV351 <= 1
 0 <= VV352 <= 1
 0 <= VV353 <= 1
 0 <= VV354 <= 1
 0 <= VV605 <= 1
 0 <= VV356 <= 1
 0 <= VV357 <= 1
 0 <= VV358 <= 1
 0 <= VV359 <= 1
 0 <= VV360 <= 1
 0 <= VV604 <= 1
 0 <= VV603 <= 1
 0 <= VV602 <= 1
 0 <= VV364 <= 1
 0 <= VV365 <= 1
 0 <= VV366 <= 1
 0 <= VV367 <= 1
 0 <= VV368 <= 1
 0 <= VV369 <= 1
 0 <= VV370 <= 1
 0 <= VV371 <= 1
 0 <= VV372 <= 1
 0 <= VV373 <= 1
 0 <= VV374 <= 1
 0 <= VV375 <= 1
 0 <= VV376 <= 1
 0 <= VV377 <= 1
 0 <= VV378 <= 1
 0 <= VV379 <= 1
 0 <= VV380 <= 1
 0 <= VV381 <= 1
 0 <= VV382 <= 1
 0 <= VV383 <= 1
 0 <= VV384 <= 1
 0 <= VV385 <= 1
 0 <= VV386 <= 1
 0 <= VV387 <= 1
 0 <= VV388 <= 1
 0 <= VV389 <= 1
 0 <= VV390 <= 1
 0 <= VV391 <= 1
 0 <= VV392 <= 1
 0 <= VV393 <= 1
 0 <= VV394 <= 1
 0 <= VV395 <= 1
 0 <= VV396 <= 1
 0 <= VV397 <= 1
 0 <= VV398 <= 1
 0 <= VV399 <= 1
 0 <= VV400 <= 1
 0 <= VV401 <= 1
 0 <= VV402 <= 1
 0 <= VV403 <= 1
 0 <= VV404 <= 1
 0 <= VV405 <= 1
 0 <= VV406 <= 1
 0 <= VV407 <= 1
 0 <= VV408 <= 1
 0 <= VV409 <= 1
 0 <= VV410 <= 1
 0 <= VV411 <= 1
 0 <= VV412 <= 1
 0 <= VV413 <= 1
 0 <= VV414 <= 1
 0 <= VV415 <= 1
 0 <= VV416 <= 1
 0 <= VV417 <= 1
 0 <= VV418 <= 1
 0 <= VV419 <= 1
 0 <= VV420 <= 1
 0 <= VV421 <= 1
 0 <= VV422 <= 1
 0 <= VV423 <= 1
 0 <= VV424 <= 1
 0 <= VV425 <= 1
 0 <= VV426 <= 1
 0 <= VV427 <= 1
 0 <= VV428 <= 1
 0 <= VV429 <= 1
 0 <= VV430 <= 1
 0 <= VV431 <= 1
 0 <= VV432 <= 1
 0 <= VV433 <= 1
 0 <= VV434 <= 1
 0 <= VV435 <= 1
 0 <= VV436 <= 1
 0 <= VV437 <= 1
 0 <= VV438 <= 1
 0 <= VV439 <= 1
 0 <= VV440 <= 1
 0 <= VV441 <= 1
 0 <= VV442 <= 1
 0 <= VV443 <= 1
 0 <= VV444 <= 1
 0 <= VV445 <= 1
 0 <= VV446 <= 1
 0 <= VV447 <= 1
 0 <= VV448 <= 1
 0 <= VV449 <= 1
 0 <= VV450 <= 1
 0 <= VV451 <= 1
 0 <= VV541 <= 1
 0 <= VV542 <= 1
 0 <= VV543 <= 1
 0 <= VV544 <= 1
 0 <= VV545 <= 1
 0 <= VV546 <= 1
 0 <= VV547 <= 1
 0 <= VV548 <= 1
 0 <= VV549 <= 1
 0 <= VV550 <= 1
 0 <= VV551 <= 1
 0 <= VV552 <= 1
 0 <= VV553 <= 1
 0 <= VV554 <= 1
 0 <= VV555 <= 1
 0 <= VV556 <= 1
 0 <= VV557 <= 1
 0 <= VV558 <= 1
 0 <= VV559 <= 1
 0 <= VV560 <= 1
 0 <= VV561 <= 1
 0 <= VV562 <= 1
 0 <= VV563 <= 1
 0 <= VV564 <= 1
 0 <= VV565 <= 1
 0 <= VV566 <= 1
 0 <= VV567 <= 1
 0 <= VV568 <= 1
 0 <= VV569 <= 1
 0 <= VV570 <= 1
 0 <= VV571 <= 1
 0 <= VV572 <= 1
 0 <= VV573 <= 1
 0 <= VV574 <= 1
 0 <= VV575 <= 1
 0 <= VV576 <= 1
 0 <= VV577 <= 1
 0 <= VV578 <= 1
 0 <= VV579 <= 1
 0 <= VV580 <= 1
 0 <= VV581 <= 1
 0 <= VV582 <= 1
 0 <= VV583 <= 1
 0 <= VV584 <= 1
 0 <= VV585 <= 1
 0 <= VV586 <= 1
 0 <= VV587 <= 1
 0 <= VV588 <= 1
 0 <= VV589 <= 1
 0 <= VV590 <= 1
 0 <= VV591 <= 1
 0 <= VV592 <= 1
 0 <= VV593 <= 1
 0 <= VV594 <= 1
 0 <= VV595 <= 1
 0 <= VV596 <= 1
 0 <= VV597 <= 1
 0 <= VV598 <= 1
 0 <= VV599 <= 1
 0 <= VV600 <= 1
 0 <= VV601 <= 1
 0 <= VV628 <= 1
 0 <= VV362 <= 2
 0 <= VV361 <= 2
 0 <= VV355 <= 4
 0 <= VV349 <= 3
 0 <= VV346 <= 2
 0 <= VV345 <= 4
 0 <= VV344 <= 3
 0 <= VV342 <= 2
 0 <= VV332 <= 3
 0 <= VV331 <= 4
 0 <= VV326 <= 5
 0 <= VV323 <= 3
 0 <= VV315 <= 2
 0 <= VV309 <= 2
 0 <= VV308 <= 3
 0 <= VV300 <= 3
 0 <= VV295 <= 2
 0 <= VV294 <= 2
 0 <= VV293 <= 2
 0 <= VV290 <= 2
 0 <= VV289 <= 2
 0 <= VV288 <= 3
 0 <= VV282 <= 2
 0 <= VV277 <= 2
 0 <= VV363 <= 2
 20300 <= VV540 <= 20800
Binaries
 VV627 VV276 VV626 VV278 VV279 VV280 VV281 VV625 VV283 VV284 VV285 VV286 VV287 VV624 VV623 VV622 VV291
 VV292 VV621 VV620 VV619 VV296 VV297 VV298 VV299 VV618 VV301 VV302 VV303 VV304 VV305 VV306 VV307 VV617
 VV616 VV310 VV311 VV312 VV313 VV314 VV615 VV316 VV317 VV318 VV319 VV320 VV321 VV322 VV614 VV324 VV325
 VV613 VV327 VV328 VV329 VV330 VV612 VV611 VV333 VV334 VV335 VV336 VV337 VV338 VV339 VV340 VV341 VV610
 VV343 VV609 VV608 VV607 VV347 VV348 VV606 VV350 VV351 VV352 VV353 VV354 VV605 VV356 VV357 VV358 VV359
 VV360 VV604 VV603 VV602 VV364 VV365 VV366 VV367 VV368 VV369 VV370 VV371 VV372 VV373 VV374 VV375 VV376
 VV377 VV378 VV379 VV380 VV381 VV382 VV383 VV384 VV385 VV386 VV387 VV388 VV389 VV390 VV391 VV392 VV393
 VV394 VV395 VV396 VV397 VV398 VV399 VV400 VV401 VV402 VV403 VV404 VV405 VV406 VV407 VV408 VV409 VV410
 VV411 VV412 VV413 VV414 VV415 VV416 VV417 VV418 VV419 VV420 VV421 VV422 VV423 VV424 VV425 VV426 VV427
 VV428 VV429 VV430 VV431 VV432 VV433 VV434 VV435 VV436 VV437 VV438 VV439 VV440 VV441 VV442 VV443 VV444
 VV445 VV446 VV447 VV448 VV449 VV450 VV451 VV541 VV542 VV543 VV544 VV545 VV546 VV547 VV548 VV549 VV550
 VV551 VV552 VV553 VV554 VV555 VV556 VV557 VV558 VV559 VV560 VV561 VV562 VV563 VV564 VV565 VV566 VV567
 VV568 VV569 VV570 VV571 VV572 VV573 VV574 VV575 VV576 VV577 VV578 VV579 VV580 VV581 VV582 VV583 VV584
 VV585 VV586 VV587 VV588 VV589 VV590 VV591 VV592 VV593 VV594 VV595 VV596 VV597 VV598 VV599 VV600 VV601
 VV628
Generals
 VV362 VV361 VV355 VV349 VV346 VV345 VV344 VV342 VV332 VV331 VV326 VV323 VV315 VV309 VV308 VV300 VV295
 VV294 VV293 VV290 VV289 VV288 VV282 VV277 VV363
End
